
c turning on binary mode checking

c parsing input formula with 3656 variables and 23183 clauses

c finished parsing, read 88196 bytes from proof file

c detected empty clause; start verification via backward checking

c 53 of 23183 clauses in core                            

c 14 of 1951 lemmas in core using 69 resolution steps

c 0 RAT lemmas in core; 0 redundant literals in core lemmas

s VERIFIED

c verification time: 0.057 seconds
